;; Preprocessed for Astral solver
(set-info :status unsat)
;; variables
(declare-const x0 Loc)
(declare-const x1 Loc)
(declare-const x2 Loc)
(declare-const x3 Loc)
(declare-const x4 Loc)
(declare-const x5 Loc)
(declare-const x6 Loc)
(declare-const x7 Loc)
(declare-const x8 Loc)
(declare-const x9 Loc)
(declare-const x10 Loc)
(declare-const x11 Loc)
(declare-const x12 Loc)
(declare-const x13 Loc)
(declare-const x14 Loc)
(declare-const x15 Loc)
(declare-const x16 Loc)
(declare-const x17 Loc)
(declare-const x18 Loc)
(declare-const x19 Loc)
(declare-const x20 Loc)
(declare-const x21 Loc)
(declare-const x22 Loc)
(declare-const x23 Loc)

(assert 
		(sep 
			(= nil nil)
			(distinct x11 x13)
			(distinct x11 x19)
			(distinct x3 x5)
			(distinct x7 x18)
			(distinct x7 x9)
			(distinct x7 x15)
			(distinct x9 x11)
			(distinct x9 x12)
			(distinct x9 x14)
			(distinct x12 x15)
			(distinct x17 x19)
			(distinct x2 x8)
			(distinct x2 x11)
			(distinct x2 x13)
			(distinct x2 x15)
			(distinct x2 x5)
			(distinct x4 x16)
			(distinct x1 x5)
			(distinct x16 x19)
			(distinct x10 x19)
			(distinct x10 x17)
			(distinct x10 x14)
			(distinct x13 x14)
			(distinct x5 x10)
		(sep 
			(ls x13 x9 )
			(ls x13 x11 )
			(ls x19 x7 )
			(ls x19 x11 )
			(ls x16 x13 )
			(ls x18 x2 )
			(ls x18 x19 )
			(ls x1 x12 )
			(ls x14 x9 )
			(ls x14 x18 )
			(ls x15 x6 )
			(ls x9 x18 )
			(ls x7 x3 )
			(ls x11 x4 )
		)

		)

)

(check-sat)
